data/solutions/recovery/degenerate/intermediate/binding/degenerate_intermediate_instance37/22.sol
Elapsed time: 0.04
Upper bound: 191863.0
Planning weighted value: 8584269267.0
C[0]=191863.0
C[1]=187896.0
C[2]=172449.0
C[3]=171951.0
C[4]=170377.0
C[5]=166411.0
C[6]=166354.0
C[7]=165142.0
C[8]=163716.0
C[9]=163575.0
C[10]=162163.0
C[11]=160817.0
C[12]=124667.0
C[13]=122627.0
C[14]=0.0
C[15]=0.0
y[0]=13
y[1]=5
y[2]=9
y[3]=4
y[4]=3
y[5]=7
y[6]=6
y[7]=4
y[8]=13
y[9]=10
y[10]=0
y[11]=6
y[12]=5
y[13]=1
y[14]=12
y[15]=2
y[16]=10
y[17]=9
y[18]=13
y[19]=1
y[20]=5
y[21]=8
y[22]=5
y[23]=8
y[24]=6
y[25]=8
y[26]=1
y[27]=8
y[28]=11
y[29]=9
y[30]=9
y[31]=13
y[32]=10
y[33]=6
y[34]=12
y[35]=11
y[36]=11
y[37]=2
y[38]=7
y[39]=5
y[40]=2
y[41]=4
y[42]=6
y[43]=3
y[44]=7
y[45]=0
y[46]=4
y[47]=12
y[48]=7
y[49]=10
y[50]=3
y[51]=0
y[52]=4
y[53]=9
y[54]=10
y[55]=11
y[56]=2
y[57]=12
y[58]=0
y[59]=4
y[60]=5
y[61]=2
y[62]=0
y[63]=3
y[64]=8
