data/solutions/recovery/degenerate/intermediate/binding/degenerate_intermediate_instance37/22.log

Log started (V12.6.3.0) Sun Apr 22 12:33:21 2018

New value for default parallel thread count: 1

Problem '/tmp/tmp4WIlDs.pyomo.lp' read.
Read time = 0.02 sec. (0.75 ticks)

Problem name         : /tmp/tmp4WIlDs.pyomo.lp
Objective sense      : Minimize
Variables            :    1058  [Nneg: 1,  Binary: 1040,  General Integer: 17]
Objective nonzeros   :       1
Linear constraints   :     165  [Less: 81,  Equal: 84]
  Nonzeros           :   53902
  RHS nonzeros       :      66

Variables            : Min LB: 0.000000         Max UB: 1.000000       
Objective nonzeros   : Min   : 1.000000         Max   : 1.000000       
Linear constraints   :
  Nonzeros           : Min   : 1.000000         Max   : 128311.0       
  RHS nonzeros       : Min   : 1.000000         Max   : 1.000000       
Tried aggregator 2 times.
MIP Presolve eliminated 125 rows and 875 columns.
Aggregator did 14 substitutions.
Reduced MIP has 26 rows, 169 columns, and 350 nonzeros.
Reduced MIP has 168 binaries, 1 generals, 0 SOSs, and 0 indicators.
Presolve time = 0.00 sec. (3.83 ticks)
Found incumbent of value 818473.000000 after 0.00 sec. (5.18 ticks)
Probing time = 0.00 sec. (0.21 ticks)
Cover probing fixed 0 vars, tightened 2 bounds.
Tried aggregator 1 time.
Reduced MIP has 26 rows, 169 columns, and 350 nonzeros.
Reduced MIP has 168 binaries, 1 generals, 0 SOSs, and 0 indicators.
Presolve time = 0.00 sec. (0.28 ticks)
Probing time = 0.00 sec. (0.21 ticks)
Clique table members: 12.
MIP emphasis: balance optimality and feasibility.
MIP search method: dynamic search.
Parallel mode: none, using 1 thread.
Root relaxation solution time = 0.00 sec. (0.18 ticks)

        Nodes                                         Cuts/
   Node  Left     Objective  IInf  Best Integer    Best Bound    ItCnt     Gap

*     0+    0                       818473.0000   191863.0000            76.56%
      0     0   191863.0000    14   818473.0000   191863.0000       30   76.56%
*     0+    0                       247891.0000   191863.0000            22.60%
      0     0   191863.0000     8   247891.0000      Cuts: 12       42   22.60%
*     0+    0                       222869.0000   191863.0000            13.91%
      0     0   191863.0000     2   222869.0000      Cuts: 12       51   13.91%
*     0+    0                       215415.0000   191863.0000            10.93%
      0     0   191863.0000     8   215415.0000       Cuts: 4       60   10.93%
*     0+    0                       191863.0000   191863.0000             0.00%
      0     0        cutoff         191863.0000   191863.0000       60    0.00%
Elapsed time = 0.01 sec. (8.15 ticks, tree = 0.01 MB, solutions = 4)

Clique cuts applied:  1
Implied bound cuts applied:  2
Mixed integer rounding cuts applied:  12
Zero-half cuts applied:  3
Lift and project cuts applied:  1
Gomory fractional cuts applied:  4

Root node processing (before b&c):
  Real time             =    0.01 sec. (8.20 ticks)
Sequential b&c:
  Real time             =    0.00 sec. (0.00 ticks)
                          ------------
Total (root+branch&cut) =    0.01 sec. (8.20 ticks)

Solution pool: 4 solutions saved.

MIP - Integer optimal solution:  Objective =  1.9186300000e+05
Solution time =    0.01 sec.  Iterations = 60  Nodes = 0
Deterministic time = 8.20 ticks  (926.61 ticks/sec)


Incumbent solution written to file '/tmp/tmpfaub3D.cplex.sol'.
